JulietBench/Juliet_Based_Patch_Bench/qemu/CWE-369-Divide-By-Zero/CVE_2014_0142_8e53abbc20d08ae3ec30c2054e1161314ad9501d/Resultbochs_open_Snippet_patch2NEQ.smt2
; benchmark generated from python API
(set-info :status unknown)
(declare-fun R () (_ BitVec 32))
(declare-fun rdi () (_ BitVec 64))
(assert
 (let (($x74 (and (distinct (_ bv4294967295 32) R) true)))
 (let (($x67 (= (_ bv0 32) R)))
 (let ((?x6 ((_ extract 31 0) rdi)))
 (let (($x17 (and (distinct (_ bv0 32) ?x6) true)))
 (let ((?x7 ((_ zero_extend 32) ?x6)))
 (let ((?x11 ((_ sign_extend 64) ?x7)))
 (let ((?x12 (bvsdiv (_ bv9223372036854775807 128) ?x11)))
 (let ((?x13 ((_ extract 63 0) ?x12)))
 (let (($x58 (bvsge (_ bv4294967295 64) ?x13)))
 (let (($x68 (and $x58 $x17 $x67)))
 (let ((?x21 (concat (_ bv0 96) ?x6)))
 (let ((?x63 (bvsdiv (_ bv9223372036854775807 128) ?x21)))
 (let ((?x64 ((_ extract 31 0) ?x63)))
 (let (($x65 (= R ?x64)))
 (let (($x32 (bvslt (_ bv4294967295 64) ?x13)))
 (let (($x66 (and $x32 $x17 $x65)))
 (let (($x69 (or $x66 $x68)))
 (let (($x73 (not $x69)))
 (let (($x75 (and $x73 $x74)))
 (let (($x71 (= (_ bv4294967295 32) R)))
 (let (($x72 (and $x69 $x71)))
 (let (($x76 (or $x72 $x75)))
 (not $x76))))))))))))))))))))))))
(check-sat)
